SAT
-1 -75 -74 73 -19 14 31 -69 -2 43 15 -45 24 12 21 70 -64 -50 65 72 36 71 -8 -11 -34 -28 -33 -62 -41 -60 48 -32 -27 -54 -59 -40 -5 -39 3 57 6 -22 -68 58 -29 -17 66 46 25 -37 26 -61 -30 -23 -7 4 -35 67 -38 55 -10 18 42 63 -20 53 47 51 52 -49 -9 -16 -44 -56 -13 0
